100
150
100
100
100
98
98
98
97
96
95
95
94
92
92
91
91
91
90
90
89
89
89
89
87
87
85
84
84
83
82
81
78
78
78
77
77
77
76
75
74
72
72
71
69
69
68
67
67
67
66
65
62
62
62
61
60
60
60
60
60
59
58
58
57
55
55
54
52
52
48
46
46
45
45
44
44
43
43
43
42
42
41
41
40
40
37
35
33
33
33
32
31
30
29
29
29
25
25
24
23
21
